experiments/knapsack_bounded/knapsack_bounded_30_3.mps
NAME
ROWS
 N  OBJ
 L  c1
 L  c2
 L  c3
 L  c4
 L  c5
 L  c6
 L  c7
 L  c8
 L  c9
 L  c10
 L  c11
 L  c12
 L  c13
 L  c14
 L  c15
 L  c16
 L  c17
 L  c18
 L  c19
 L  c20
 L  c21
 L  c22
 L  c23
 L  c24
 L  c25
 L  c26
 L  c27
 L  c28
 L  c29
 L  c30
 L  c31
COLUMNS
    MARKER    'MARKER'                 'INTORG'
    x[1]      c1        942
    x[1]      c2        1
    x[1]      OBJ       -932
    x[2]      c1        100
    x[2]      c3        1
    x[2]      OBJ       -79
    x[3]      c1        29
    x[3]      c4        1
    x[3]      OBJ       -726
    x[4]      c1        240
    x[4]      c5        1
    x[4]      OBJ       -542
    x[5]      c1        788
    x[5]      c6        1
    x[5]      OBJ       -307
    x[6]      c1        947
    x[6]      c7        1
    x[6]      OBJ       -569
    x[7]      c1        619
    x[7]      c8        1
    x[7]      OBJ       -979
    x[8]      c1        729
    x[8]      c9        1
    x[8]      OBJ       -369
    x[9]      c1        751
    x[9]      c10       1
    x[9]      OBJ       -685
    x[10]     c1        653
    x[10]     c11       1
    x[10]     OBJ       -725
    x[11]     c1        554
    x[11]     c12       1
    x[11]     OBJ       -661
    x[12]     c1        174
    x[12]     c13       1
    x[12]     OBJ       -301
    x[13]     c1        113
    x[13]     c14       1
    x[13]     OBJ       -327
    x[14]     c1        293
    x[14]     c15       1
    x[14]     OBJ       -554
    x[15]     c1        259
    x[15]     c16       1
    x[15]     OBJ       -853
    x[16]     c1        387
    x[16]     c17       1
    x[16]     OBJ       -774
    x[17]     c1        3
    x[17]     c18       1
    x[17]     OBJ       -13
    x[18]     c1        892
    x[18]     c19       1
    x[18]     OBJ       -504
    x[19]     c1        418
    x[19]     c20       1
    x[19]     OBJ       -824
    x[20]     c1        974
    x[20]     c21       1
    x[20]     OBJ       -749
    x[21]     c1        510
    x[21]     c22       1
    x[21]     OBJ       -391
    x[22]     c1        576
    x[22]     c23       1
    x[22]     OBJ       -978
    x[23]     c1        10
    x[23]     c24       1
    x[23]     OBJ       -830
    x[24]     c1        495
    x[24]     c25       1
    x[24]     OBJ       -96
    x[25]     c1        669
    x[25]     c26       1
    x[25]     OBJ       -229
    x[26]     c1        276
    x[26]     c27       1
    x[26]     OBJ       -49
    x[27]     c1        28
    x[27]     c28       1
    x[27]     OBJ       -94
    x[28]     c1        299
    x[28]     c29       1
    x[28]     OBJ       -312
    x[29]     c1        492
    x[29]     c30       1
    x[29]     OBJ       -626
    x[30]     c1        950
    x[30]     c31       1
    x[30]     OBJ       -407
    MARKER    'MARKER'                 'INTEND'
RHS
    rhs       c1        7085
    rhs       c2        8
    rhs       c3        2
    rhs       c4        3
    rhs       c5        6
    rhs       c6        7
    rhs       c7        7
    rhs       c8        5
    rhs       c9        8
    rhs       c10       3
    rhs       c11       7
    rhs       c12       6
    rhs       c13       3
    rhs       c14       6
    rhs       c15       2
    rhs       c16       10
    rhs       c17       6
    rhs       c18       4
    rhs       c19       1
    rhs       c20       8
    rhs       c21       10
    rhs       c22       10
    rhs       c23       2
    rhs       c24       6
    rhs       c25       7
    rhs       c26       10
    rhs       c27       5
    rhs       c28       6
    rhs       c29       5
    rhs       c30       9
    rhs       c31       5
RANGES
BOUNDS
 LO bounds    x[1]      0
 PL bounds    x[1]
 LO bounds    x[2]      0
 PL bounds    x[2]
 LO bounds    x[3]      0
 PL bounds    x[3]
 LO bounds    x[4]      0
 PL bounds    x[4]
 LO bounds    x[5]      0
 PL bounds    x[5]
 LO bounds    x[6]      0
 PL bounds    x[6]
 LO bounds    x[7]      0
 PL bounds    x[7]
 LO bounds    x[8]      0
 PL bounds    x[8]
 LO bounds    x[9]      0
 PL bounds    x[9]
 LO bounds    x[10]     0
 PL bounds    x[10]
 LO bounds    x[11]     0
 PL bounds    x[11]
 LO bounds    x[12]     0
 PL bounds    x[12]
 LO bounds    x[13]     0
 PL bounds    x[13]
 LO bounds    x[14]     0
 PL bounds    x[14]
 LO bounds    x[15]     0
 PL bounds    x[15]
 LO bounds    x[16]     0
 PL bounds    x[16]
 LO bounds    x[17]     0
 PL bounds    x[17]
 LO bounds    x[18]     0
 PL bounds    x[18]
 LO bounds    x[19]     0
 PL bounds    x[19]
 LO bounds    x[20]     0
 PL bounds    x[20]
 LO bounds    x[21]     0
 PL bounds    x[21]
 LO bounds    x[22]     0
 PL bounds    x[22]
 LO bounds    x[23]     0
 PL bounds    x[23]
 LO bounds    x[24]     0
 PL bounds    x[24]
 LO bounds    x[25]     0
 PL bounds    x[25]
 LO bounds    x[26]     0
 PL bounds    x[26]
 LO bounds    x[27]     0
 PL bounds    x[27]
 LO bounds    x[28]     0
 PL bounds    x[28]
 LO bounds    x[29]     0
 PL bounds    x[29]
 LO bounds    x[30]     0
 PL bounds    x[30]
ENDATA
